p cnf 152 704
-1 -81 0
-1 -82 0
81 -81 0
82 -82 0
-21 -85 0
-21 -86 0
85 -85 0
86 -86 0
-41 -89 0
-41 -90 0
89 -89 0
90 -90 0
-61 -93 0
-61 -94 0
93 -93 0
94 -94 0
2 -81 0
2 -82 0
81 -81 0
82 -82 0
22 -85 0
22 -86 0
85 -85 0
86 -86 0
42 -89 0
42 -90 0
89 -89 0
90 -90 0
62 -93 0
62 -94 0
93 -93 0
94 -94 0
-3 -81 0
-3 -82 0
81 -81 0
82 -82 0
-23 -85 0
-23 -86 0
85 -85 0
86 -86 0
-43 -89 0
-43 -90 0
89 -89 0
90 -90 0
-63 -93 0
-63 -94 0
93 -93 0
94 -94 0
4 -81 0
4 -82 0
81 -81 0
82 -82 0
24 -85 0
24 -86 0
85 -85 0
86 -86 0
44 -89 0
44 -90 0
89 -89 0
90 -90 0
64 -93 0
64 -94 0
93 -93 0
94 -94 0
5 -81 0
5 -82 0
81 -81 0
82 -82 0
25 -85 0
25 -86 0
85 -85 0
86 -86 0
45 -89 0
45 -90 0
89 -89 0
90 -90 0
65 -93 0
65 -94 0
93 -93 0
94 -94 0
6 -81 0
6 -82 0
81 -81 0
82 -82 0
26 -85 0
26 -86 0
85 -85 0
86 -86 0
46 -89 0
46 -90 0
89 -89 0
90 -90 0
66 -93 0
66 -94 0
93 -93 0
94 -94 0
7 -81 0
7 -82 0
81 -81 0
82 -82 0
27 -85 0
27 -86 0
85 -85 0
86 -86 0
47 -89 0
47 -90 0
89 -89 0
90 -90 0
67 -93 0
67 -94 0
93 -93 0
94 -94 0
8 -81 0
8 -82 0
81 -81 0
82 -82 0
28 -85 0
28 -86 0
85 -85 0
86 -86 0
48 -89 0
48 -90 0
89 -89 0
90 -90 0
68 -93 0
68 -94 0
93 -93 0
94 -94 0
9 -81 0
9 -82 0
81 -81 0
82 -82 0
29 -85 0
29 -86 0
85 -85 0
86 -86 0
49 -89 0
49 -90 0
89 -89 0
90 -90 0
69 -93 0
69 -94 0
93 -93 0
94 -94 0
10 -81 0
10 -82 0
81 -81 0
82 -82 0
30 -85 0
30 -86 0
85 -85 0
86 -86 0
50 -89 0
50 -90 0
89 -89 0
90 -90 0
70 -93 0
70 -94 0
93 -93 0
94 -94 0
11 -81 0
11 -82 0
81 -81 0
82 -82 0
31 -85 0
31 -86 0
85 -85 0
86 -86 0
51 -89 0
51 -90 0
89 -89 0
90 -90 0
71 -93 0
71 -94 0
93 -93 0
94 -94 0
12 -97 -81 0
-12 97 -81 0
12 97 -82 0
-12 -97 -82 0
32 -97 -85 0
-32 97 -85 0
32 97 -86 0
-32 -97 -86 0
52 -97 -89 0
-52 97 -89 0
52 97 -90 0
-52 -97 -90 0
72 -97 -93 0
-72 97 -93 0
72 97 -94 0
-72 -97 -94 0
13 -81 0
13 -82 0
81 -81 0
82 -82 0
33 -85 0
33 -86 0
85 -85 0
86 -86 0
53 -89 0
53 -90 0
89 -89 0
90 -90 0
73 -93 0
73 -94 0
93 -93 0
94 -94 0
14 -81 0
14 -82 0
81 -81 0
82 -82 0
34 -85 0
34 -86 0
85 -85 0
86 -86 0
54 -89 0
54 -90 0
89 -89 0
90 -90 0
74 -93 0
74 -94 0
93 -93 0
94 -94 0
15 -81 0
15 -82 0
81 -81 0
82 -82 0
35 -85 0
35 -86 0
85 -85 0
86 -86 0
55 -89 0
55 -90 0
89 -89 0
90 -90 0
75 -93 0
75 -94 0
93 -93 0
94 -94 0
16 -81 0
16 -82 0
81 -81 0
82 -82 0
36 -85 0
36 -86 0
85 -85 0
86 -86 0
56 -89 0
56 -90 0
89 -89 0
90 -90 0
76 -93 0
76 -94 0
93 -93 0
94 -94 0
-17 -81 0
-17 -82 0
81 -81 0
82 -82 0
-37 -85 0
-37 -86 0
85 -85 0
86 -86 0
-57 -89 0
-57 -90 0
89 -89 0
90 -90 0
-77 -93 0
-77 -94 0
93 -93 0
94 -94 0
-18 -81 0
-18 -82 0
81 -81 0
82 -82 0
-38 -85 0
-38 -86 0
85 -85 0
86 -86 0
-58 -89 0
-58 -90 0
89 -89 0
90 -90 0
-78 -93 0
-78 -94 0
93 -93 0
94 -94 0
-19 -81 0
-19 -82 0
81 -81 0
82 -82 0
-39 -85 0
-39 -86 0
85 -85 0
86 -86 0
-59 -89 0
-59 -90 0
89 -89 0
90 -90 0
-79 -93 0
-79 -94 0
93 -93 0
94 -94 0
-20 -81 0
-20 -82 0
81 -81 0
82 -82 0
-40 -85 0
-40 -86 0
85 -85 0
86 -86 0
-60 -89 0
-60 -90 0
89 -89 0
90 -90 0
-80 -93 0
-80 -94 0
93 -93 0
94 -94 0
-137 81 0
137 -81 0
-138 82 0
137 -82 0
-137 -81 0
-138 -82 0
-141 81 137 0
141 -81 0
141 -137 0
-142 82 138 0
142 -82 0
142 -138 0
-141 -85 0
-142 -86 0
-145 85 141 0
145 -85 0
145 -141 0
-146 86 142 0
146 -86 0
146 -142 0
-145 -89 0
-146 -90 0
-149 89 145 0
149 -89 0
149 -145 0
-150 90 146 0
150 -90 0
150 -146 0
-149 -93 0
-150 -94 0
149 0
150 0
1 -98 -83 0
-1 98 -83 0
1 98 -84 0
-1 -98 -84 0
21 -98 -87 0
-21 98 -87 0
21 98 -88 0
-21 -98 -88 0
41 -98 -91 0
-41 98 -91 0
41 98 -92 0
-41 -98 -92 0
61 -98 -95 0
-61 98 -95 0
61 98 -96 0
-61 -98 -96 0
2 -99 -83 0
-2 99 -83 0
2 99 -84 0
-2 -99 -84 0
22 -99 -87 0
-22 99 -87 0
22 99 -88 0
-22 -99 -88 0
42 -99 -91 0
-42 99 -91 0
42 99 -92 0
-42 -99 -92 0
62 -99 -95 0
-62 99 -95 0
62 99 -96 0
-62 -99 -96 0
3 -100 -83 0
-3 100 -83 0
3 100 -84 0
-3 -100 -84 0
23 -100 -87 0
-23 100 -87 0
23 100 -88 0
-23 -100 -88 0
43 -100 -91 0
-43 100 -91 0
43 100 -92 0
-43 -100 -92 0
63 -100 -95 0
-63 100 -95 0
63 100 -96 0
-63 -100 -96 0
4 -101 -83 0
-4 101 -83 0
4 101 -84 0
-4 -101 -84 0
24 -101 -87 0
-24 101 -87 0
24 101 -88 0
-24 -101 -88 0
44 -101 -91 0
-44 101 -91 0
44 101 -92 0
-44 -101 -92 0
64 -101 -95 0
-64 101 -95 0
64 101 -96 0
-64 -101 -96 0
5 -83 0
5 -84 0
83 -83 0
84 -84 0
25 -87 0
25 -88 0
87 -87 0
88 -88 0
45 -91 0
45 -92 0
91 -91 0
92 -92 0
65 -95 0
65 -96 0
95 -95 0
96 -96 0
6 -83 0
6 -84 0
83 -83 0
84 -84 0
26 -87 0
26 -88 0
87 -87 0
88 -88 0
46 -91 0
46 -92 0
91 -91 0
92 -92 0
66 -95 0
66 -96 0
95 -95 0
96 -96 0
7 -83 0
7 -84 0
83 -83 0
84 -84 0
27 -87 0
27 -88 0
87 -87 0
88 -88 0
47 -91 0
47 -92 0
91 -91 0
92 -92 0
67 -95 0
67 -96 0
95 -95 0
96 -96 0
8 -83 0
8 -84 0
83 -83 0
84 -84 0
28 -87 0
28 -88 0
87 -87 0
88 -88 0
48 -91 0
48 -92 0
91 -91 0
92 -92 0
68 -95 0
68 -96 0
95 -95 0
96 -96 0
9 -83 0
9 -84 0
83 -83 0
84 -84 0
29 -87 0
29 -88 0
87 -87 0
88 -88 0
49 -91 0
49 -92 0
91 -91 0
92 -92 0
69 -95 0
69 -96 0
95 -95 0
96 -96 0
10 -83 0
10 -84 0
83 -83 0
84 -84 0
30 -87 0
30 -88 0
87 -87 0
88 -88 0
50 -91 0
50 -92 0
91 -91 0
92 -92 0
70 -95 0
70 -96 0
95 -95 0
96 -96 0
11 -83 0
11 -84 0
83 -83 0
84 -84 0
31 -87 0
31 -88 0
87 -87 0
88 -88 0
51 -91 0
51 -92 0
91 -91 0
92 -92 0
71 -95 0
71 -96 0
95 -95 0
96 -96 0
12 -102 -83 0
-12 102 -83 0
12 102 -84 0
-12 -102 -84 0
32 -102 -87 0
-32 102 -87 0
32 102 -88 0
-32 -102 -88 0
52 -102 -91 0
-52 102 -91 0
52 102 -92 0
-52 -102 -92 0
72 -102 -95 0
-72 102 -95 0
72 102 -96 0
-72 -102 -96 0
13 -103 -83 0
-13 103 -83 0
13 103 -84 0
-13 -103 -84 0
33 -103 -87 0
-33 103 -87 0
33 103 -88 0
-33 -103 -88 0
53 -103 -91 0
-53 103 -91 0
53 103 -92 0
-53 -103 -92 0
73 -103 -95 0
-73 103 -95 0
73 103 -96 0
-73 -103 -96 0
14 -104 -83 0
-14 104 -83 0
14 104 -84 0
-14 -104 -84 0
34 -104 -87 0
-34 104 -87 0
34 104 -88 0
-34 -104 -88 0
54 -104 -91 0
-54 104 -91 0
54 104 -92 0
-54 -104 -92 0
74 -104 -95 0
-74 104 -95 0
74 104 -96 0
-74 -104 -96 0
15 -105 -83 0
-15 105 -83 0
15 105 -84 0
-15 -105 -84 0
35 -105 -87 0
-35 105 -87 0
35 105 -88 0
-35 -105 -88 0
55 -105 -91 0
-55 105 -91 0
55 105 -92 0
-55 -105 -92 0
75 -105 -95 0
-75 105 -95 0
75 105 -96 0
-75 -105 -96 0
16 -83 0
16 -84 0
83 -83 0
84 -84 0
36 -87 0
36 -88 0
87 -87 0
88 -88 0
56 -91 0
56 -92 0
91 -91 0
92 -92 0
76 -95 0
76 -96 0
95 -95 0
96 -96 0
-17 -83 0
-17 -84 0
83 -83 0
84 -84 0
-37 -87 0
-37 -88 0
87 -87 0
88 -88 0
-57 -91 0
-57 -92 0
91 -91 0
92 -92 0
-77 -95 0
-77 -96 0
95 -95 0
96 -96 0
-18 -83 0
-18 -84 0
83 -83 0
84 -84 0
-38 -87 0
-38 -88 0
87 -87 0
88 -88 0
-58 -91 0
-58 -92 0
91 -91 0
92 -92 0
-78 -95 0
-78 -96 0
95 -95 0
96 -96 0
-19 -83 0
-19 -84 0
83 -83 0
84 -84 0
-39 -87 0
-39 -88 0
87 -87 0
88 -88 0
-59 -91 0
-59 -92 0
91 -91 0
92 -92 0
-79 -95 0
-79 -96 0
95 -95 0
96 -96 0
-20 -83 0
-20 -84 0
83 -83 0
84 -84 0
-40 -87 0
-40 -88 0
87 -87 0
88 -88 0
-60 -91 0
-60 -92 0
91 -91 0
92 -92 0
-80 -95 0
-80 -96 0
95 -95 0
96 -96 0
-139 83 0
139 -83 0
-140 84 0
139 -84 0
-139 -83 0
-140 -84 0
-143 83 139 0
143 -83 0
143 -139 0
-144 84 140 0
144 -84 0
144 -140 0
-143 -87 0
-144 -88 0
-147 87 143 0
147 -87 0
147 -143 0
-148 88 144 0
148 -88 0
148 -144 0
-147 -91 0
-148 -92 0
-151 91 147 0
151 -91 0
151 -147 0
-152 92 148 0
152 -92 0
152 -148 0
-151 -95 0
-152 -96 0
151 0
152 0
